set B := Beam1 Beam2;
set HC := HCell1;
set TC := TCell1;
set CeC := CeCell1;
set CrC := CrCell1;

param rad: 
			Beam1 Beam2:=
HCell1 		   0.4	0.5
TCell1 		   0.5  0.5
CeCell1        0.6  0.4
CrCell1        0.3  0.1
;

param minr:=
CrCell1	2.7;

param r:=
TCell1 6;

param maxr:=
CeCell1 6;
